(declare-const c Int)
(declare-const term_to_project_onto0_integralized Int)
(declare-const e Int)
(declare-const d Int)
(declare-const K Int)
(declare-const |e'| Int)
(declare-const |d'| Int)
(declare-const |c'| Int)
(declare-const term_to_project_onto1_integralized Int)
(declare-const term_to_project_onto_integralized Int)
(declare-const |e'0| Int)
(declare-const |d'0| Int)
(assert (and (<= (+ (- e) 1) 0) (<= (+ (- d) 1) 0) (<= (- c) 0)
               (<= (+ c -5) 0) (= (+ (- |d'0|) K) 0)
               (<= (+ |e'0| (* -5 K) (- e)) 0)
               (or (and (= K 0) (= (+ (- |e'0|) e) 0) (= (- |d'0|) 0))
                     (and (<= (+ (- K) 1) 0) (<= (+ (- e) 1) 0)
                            (= (+ |e'0| -6) 0) (<= (+ |d'0| -6) 0)
                            (<= (+ (- |d'0|) 1) 0))) (<= (- K) 0)
               (<= (+ (- |e'0|) 1) 0) (<= (- |d'0|) 0) (<= (+ (- |d'0|) 6) 0)
               (= (+ |e'| (- |e'0|)) 0) (= (+ |d'| (- |d'0|)) 0)
               (= (+ |c'| (- c) -1) 0)
               (= (+ term_to_project_onto1_integralized (- (+ |c'| (- c)))) 0)
               (= (+ term_to_project_onto0_integralized (- (+ |d'| (- d)))) 0)
               (= (+ term_to_project_onto_integralized (- (+ |e'| (- e)))) 0)))
(check-sat)